740.66 0
0 27 15 57 13 54 19 59 14 35 7 26 0
0 12 72 31 55 25 50 18 24 49 16 6 0
0 68 2 62 28 61 21 74 30 75 0
0 73 1 22 64 42 43 41 56 23 63 33 0
0 4 52 8 46 34 67 0
0 51 3 44 32 9 39 40 17 0
0 58 10 38 65 66 11 53 0
0 48 47 36 69 71 60 70 20 37 5 29 45 0